NAME: Random_100_3
ELLAPSED_TIME_(ms): 1
TOUR_SIZE: 3254.5112
TOUR_SECTION
0
80
51
93
75
18
50
44
73
43
76
61
8
99
46
27
59
94
16
45
30
77
89
66
81
31
84
96
54
23
79
17
25
97
86
95
11
28
63
91
2
33
55
62
57
34
70
35
6
4
65
85
49
69
20
15
37
19
58
32
3
13
41
71
82
24
92
68
88
40
56
26
47
42
83
12
87
98
78
72
29
36
1
53
39
67
74
21
7
5
9
22
14
38
48
64
10
52
60
90
0
EOF
